# Solution for model r3_t9_m8_0
# Finished Task: 8 / 9
# Makespan: 380.0, Total Distance: 517.0, Total Time: 0.1191
# R O S F
0 0 11 0.0 0.0
1 1 3 0.0 0.0
2 2 7 0.0 0.0
3 1 5 39.0 74.0
4 2 -1 244.0 276.0
5 1 9 126.0 159.0
6 -1 -1 -1.0 -1.0
7 2 4 133.0 167.0
8 1 -1 350.0 380.0
9 1 8 184.0 220.0
10 0 -1 312.0 351.0
11 0 10 164.0 189.0
